# Solution for model r10_t18_m7_9
# Finished Task: 10 / 18
# Makespan: 643.0, Total Distance: 784.0, Total Time: 0.1303
# R O S F
0 0 23 0.0 0.0
1 1 27 0.0 0.0
2 2 24 0.0 0.0
3 3 22 0.0 0.0
4 4 16 0.0 0.0
5 5 25 0.0 0.0
6 6 -1 0.0 0.0
7 7 -1 0.0 0.0
8 8 -1 0.0 0.0
9 9 -1 0.0 0.0
10 -1 -1 -1.0 -1.0
11 -1 -1 -1.0 -1.0
12 1 13 555.0 580.0
13 1 -1 615.0 643.0
14 -1 -1 -1.0 -1.0
15 -1 -1 -1.0 -1.0
16 4 17 217.0 245.0
17 4 -1 473.0 512.0
18 -1 -1 -1.0 -1.0
19 -1 -1 -1.0 -1.0
20 -1 -1 -1.0 -1.0
21 -1 -1 -1.0 -1.0
22 3 -1 580.0 615.0
23 0 -1 532.0 555.0
24 2 26 319.0 354.0
25 5 -1 354.0 386.0
26 2 -1 454.0 487.0
27 1 12 365.0 397.0
